c File: flat50_3_0.col
c
c SOURCE: Joseph Culberson (joe@cs.ualberta.ca)
c DESCRIPTION: Quasi-random coloring problem
c              generated with flatness = 0
c                             probability = 0.139
c                             known coloring = 3
c                             random seed = 1960
c              Creation Date:  Tue Jun  9 12:22:10 1998
c Maximum degree = 8 Minimum degree = 1
c p edge 50 115
c cnf created by edge2cnf
p cnf 150 545
-1 -2 0
-1 -3 0
-2 -3 0
1 2 3 0
-4 -5 0
-4 -6 0
-5 -6 0
4 5 6 0
-7 -8 0
-7 -9 0
-8 -9 0
7 8 9 0
-10 -11 0
-10 -12 0
-11 -12 0
10 11 12 0
-13 -14 0
-13 -15 0
-14 -15 0
13 14 15 0
-16 -17 0
-16 -18 0
-17 -18 0
16 17 18 0
-19 -20 0
-19 -21 0
-20 -21 0
19 20 21 0
-22 -23 0
-22 -24 0
-23 -24 0
22 23 24 0
-25 -26 0
-25 -27 0
-26 -27 0
25 26 27 0
-28 -29 0
-28 -30 0
-29 -30 0
28 29 30 0
-31 -32 0
-31 -33 0
-32 -33 0
31 32 33 0
-34 -35 0
-34 -36 0
-35 -36 0
34 35 36 0
-37 -38 0
-37 -39 0
-38 -39 0
37 38 39 0
-40 -41 0
-40 -42 0
-41 -42 0
40 41 42 0
-43 -44 0
-43 -45 0
-44 -45 0
43 44 45 0
-46 -47 0
-46 -48 0
-47 -48 0
46 47 48 0
-49 -50 0
-49 -51 0
-50 -51 0
49 50 51 0
-52 -53 0
-52 -54 0
-53 -54 0
52 53 54 0
-55 -56 0
-55 -57 0
-56 -57 0
55 56 57 0
-58 -59 0
-58 -60 0
-59 -60 0
58 59 60 0
-61 -62 0
-61 -63 0
-62 -63 0
61 62 63 0
-64 -65 0
-64 -66 0
-65 -66 0
64 65 66 0
-67 -68 0
-67 -69 0
-68 -69 0
67 68 69 0
-70 -71 0
-70 -72 0
-71 -72 0
70 71 72 0
-73 -74 0
-73 -75 0
-74 -75 0
73 74 75 0
-76 -77 0
-76 -78 0
-77 -78 0
76 77 78 0
-79 -80 0
-79 -81 0
-80 -81 0
79 80 81 0
-82 -83 0
-82 -84 0
-83 -84 0
82 83 84 0
-85 -86 0
-85 -87 0
-86 -87 0
85 86 87 0
-88 -89 0
-88 -90 0
-89 -90 0
88 89 90 0
-91 -92 0
-91 -93 0
-92 -93 0
91 92 93 0
-94 -95 0
-94 -96 0
-95 -96 0
94 95 96 0
-97 -98 0
-97 -99 0
-98 -99 0
97 98 99 0
-100 -101 0
-100 -102 0
-101 -102 0
100 101 102 0
-103 -104 0
-103 -105 0
-104 -105 0
103 104 105 0
-106 -107 0
-106 -108 0
-107 -108 0
106 107 108 0
-109 -110 0
-109 -111 0
-110 -111 0
109 110 111 0
-112 -113 0
-112 -114 0
-113 -114 0
112 113 114 0
-115 -116 0
-115 -117 0
-116 -117 0
115 116 117 0
-118 -119 0
-118 -120 0
-119 -120 0
118 119 120 0
-121 -122 0
-121 -123 0
-122 -123 0
121 122 123 0
-124 -125 0
-124 -126 0
-125 -126 0
124 125 126 0
-127 -128 0
-127 -129 0
-128 -129 0
127 128 129 0
-130 -131 0
-130 -132 0
-131 -132 0
130 131 132 0
-133 -134 0
-133 -135 0
-134 -135 0
133 134 135 0
-136 -137 0
-136 -138 0
-137 -138 0
136 137 138 0
-139 -140 0
-139 -141 0
-140 -141 0
139 140 141 0
-142 -143 0
-142 -144 0
-143 -144 0
142 143 144 0
-145 -146 0
-145 -147 0
-146 -147 0
145 146 147 0
-148 -149 0
-148 -150 0
-149 -150 0
148 149 150 0
-73 -1 0
-74 -2 0
-75 -3 0
-91 -1 0
-92 -2 0
-93 -3 0
-97 -1 0
-98 -2 0
-99 -3 0
-58 -4 0
-59 -5 0
-60 -6 0
-82 -4 0
-83 -5 0
-84 -6 0
-85 -4 0
-86 -5 0
-87 -6 0
-124 -4 0
-125 -5 0
-126 -6 0
-133 -4 0
-134 -5 0
-135 -6 0
-142 -4 0
-143 -5 0
-144 -6 0
-76 -7 0
-77 -8 0
-78 -9 0
-91 -7 0
-92 -8 0
-93 -9 0
-94 -7 0
-95 -8 0
-96 -9 0
-112 -7 0
-113 -8 0
-114 -9 0
-118 -7 0
-119 -8 0
-120 -9 0
-121 -7 0
-122 -8 0
-123 -9 0
-133 -7 0
-134 -8 0
-135 -9 0
-67 -10 0
-68 -11 0
-69 -12 0
-91 -10 0
-92 -11 0
-93 -12 0
-103 -10 0
-104 -11 0
-105 -12 0
-133 -10 0
-134 -11 0
-135 -12 0
-61 -13 0
-62 -14 0
-63 -15 0
-70 -16 0
-71 -17 0
-72 -18 0
-73 -16 0
-74 -17 0
-75 -18 0
-94 -16 0
-95 -17 0
-96 -18 0
-97 -16 0
-98 -17 0
-99 -18 0
-142 -16 0
-143 -17 0
-144 -18 0
-55 -19 0
-56 -20 0
-57 -21 0
-58 -19 0
-59 -20 0
-60 -21 0
-94 -19 0
-95 -20 0
-96 -21 0
-109 -19 0
-110 -20 0
-111 -21 0
-58 -22 0
-59 -23 0
-60 -24 0
-64 -22 0
-65 -23 0
-66 -24 0
-52 -25 0
-53 -26 0
-54 -27 0
-67 -25 0
-68 -26 0
-69 -27 0
-73 -25 0
-74 -26 0
-75 -27 0
-85 -25 0
-86 -26 0
-87 -27 0
-106 -25 0
-107 -26 0
-108 -27 0
-118 -25 0
-119 -26 0
-120 -27 0
-127 -25 0
-128 -26 0
-129 -27 0
-67 -28 0
-68 -29 0
-69 -30 0
-112 -28 0
-113 -29 0
-114 -30 0
-133 -28 0
-134 -29 0
-135 -30 0
-136 -28 0
-137 -29 0
-138 -30 0
-82 -31 0
-83 -32 0
-84 -33 0
-100 -31 0
-101 -32 0
-102 -33 0
-106 -31 0
-107 -32 0
-108 -33 0
-130 -31 0
-131 -32 0
-132 -33 0
-136 -31 0
-137 -32 0
-138 -33 0
-145 -31 0
-146 -32 0
-147 -33 0
-97 -34 0
-98 -35 0
-99 -36 0
-124 -34 0
-125 -35 0
-126 -36 0
-136 -34 0
-137 -35 0
-138 -36 0
-145 -34 0
-146 -35 0
-147 -36 0
-88 -37 0
-89 -38 0
-90 -39 0
-94 -37 0
-95 -38 0
-96 -39 0
-100 -37 0
-101 -38 0
-102 -39 0
-115 -37 0
-116 -38 0
-117 -39 0
-118 -37 0
-119 -38 0
-120 -39 0
-124 -37 0
-125 -38 0
-126 -39 0
-55 -40 0
-56 -41 0
-57 -42 0
-85 -40 0
-86 -41 0
-87 -42 0
-88 -40 0
-89 -41 0
-90 -42 0
-100 -40 0
-101 -41 0
-102 -42 0
-112 -40 0
-113 -41 0
-114 -42 0
-121 -40 0
-122 -41 0
-123 -42 0
-142 -40 0
-143 -41 0
-144 -42 0
-73 -43 0
-74 -44 0
-75 -45 0
-112 -46 0
-113 -47 0
-114 -48 0
-121 -46 0
-122 -47 0
-123 -48 0
-139 -46 0
-140 -47 0
-141 -48 0
-145 -46 0
-146 -47 0
-147 -48 0
-70 -49 0
-71 -50 0
-72 -51 0
-79 -49 0
-80 -50 0
-81 -51 0
-97 -49 0
-98 -50 0
-99 -51 0
-106 -49 0
-107 -50 0
-108 -51 0
-127 -49 0
-128 -50 0
-129 -51 0
-136 -49 0
-137 -50 0
-138 -51 0
-145 -49 0
-146 -50 0
-147 -51 0
-127 -52 0
-128 -53 0
-129 -54 0
-130 -52 0
-131 -53 0
-132 -54 0
-112 -55 0
-113 -56 0
-114 -57 0
-148 -55 0
-149 -56 0
-150 -57 0
-124 -58 0
-125 -59 0
-126 -60 0
-133 -58 0
-134 -59 0
-135 -60 0
-145 -58 0
-146 -59 0
-147 -60 0
-148 -58 0
-149 -59 0
-150 -60 0
-118 -61 0
-119 -62 0
-120 -63 0
-115 -64 0
-116 -65 0
-117 -66 0
-136 -64 0
-137 -65 0
-138 -66 0
-130 -67 0
-131 -68 0
-132 -69 0
-118 -70 0
-119 -71 0
-120 -72 0
-127 -70 0
-128 -71 0
-129 -72 0
-145 -70 0
-146 -71 0
-147 -72 0
-106 -73 0
-107 -74 0
-108 -75 0
-139 -76 0
-140 -77 0
-141 -78 0
-112 -79 0
-113 -80 0
-114 -81 0
-115 -79 0
-116 -80 0
-117 -81 0
-133 -79 0
-134 -80 0
-135 -81 0
-136 -82 0
-137 -83 0
-138 -84 0
-148 -82 0
-149 -83 0
-150 -84 0
-103 -85 0
-104 -86 0
-105 -87 0
-106 -85 0
-107 -86 0
-108 -87 0
-136 -85 0
-137 -86 0
-138 -87 0
-148 -85 0
-149 -86 0
-150 -87 0
-109 -88 0
-110 -89 0
-111 -90 0
-124 -88 0
-125 -89 0
-126 -90 0
-136 -88 0
-137 -89 0
-138 -90 0
-103 -91 0
-104 -92 0
-105 -93 0
-124 -91 0
-125 -92 0
-126 -93 0
-115 -97 0
-116 -98 0
-117 -99 0
-118 -97 0
-119 -98 0
-120 -99 0
-115 -100 0
-116 -101 0
-117 -102 0
-121 -100 0
-122 -101 0
-123 -102 0
-124 -100 0
-125 -101 0
-126 -102 0
-142 -100 0
-143 -101 0
-144 -102 0
